; --full-saturate-quant --inst-when=full-last-call --inst-no-entail --term-db-mode=relevant --random-seed=1 --lang=smt2 --tlimit 520
;(set-option :produce-unsat-cores true)
(set-logic ALL_SUPPORTED)
(declare-sort A$ 0)
(declare-sort A_llist_set$ 0)
(declare-sort A_llist_bool_fun$ 0)
(declare-sort A_llist_a_llist_fun$ 0)
(declare-codatatypes () ((A_llist$ (lNil$) (lCons$ (lhd$ A$) (ltl$ A_llist$)))))
(declare-fun y$ () A_llist_set$)
(declare-fun uu$ () A_llist_a_llist_fun$)
(declare-fun bot$ () A_llist_set$)
(declare-fun inf$ (A_llist_set$ A_llist_set$) A_llist_set$)
(declare-fun uua$ () A_llist_bool_fun$)
(declare-fun lSup$ (A_llist_set$) A_llist$)
(declare-fun image$ (A_llist_a_llist_fun$ A_llist_set$) A_llist_set$)
(declare-fun lnull$ (A_llist$) Bool)
(declare-fun insert$ (A_llist$ A_llist_set$) A_llist_set$)
(declare-fun member$ (A_llist$ A_llist_set$) Bool)
(declare-fun collect$ (A_llist_bool_fun$) A_llist_set$)
(declare-fun fun_app$ (A_llist_bool_fun$ A_llist$) Bool)
(declare-fun fun_app$a (A_llist_a_llist_fun$ A_llist$) A_llist$)
(assert (! (forall ((?v0 A_llist$)) (! (= (fun_app$ uua$ ?v0) (not (lnull$ ?v0))) :pattern ((fun_app$ uua$ ?v0)))) :named a0))
(assert (! (forall ((?v0 A_llist$)) (! (= (fun_app$a uu$ ?v0) (ltl$ ?v0)) :pattern ((fun_app$a uu$ ?v0)))) :named a1))
(assert (! (not (= (insert$ lNil$ (image$ uu$ (inf$ y$ (collect$ uua$)))) (insert$ lNil$ (image$ uu$ y$)))) :named a2))
(assert (! (not (= y$ bot$)) :named a3))
(assert (! (forall ((?v0 A_llist$)) (! (= (lnull$ ?v0) (= ?v0 lNil$)) :pattern ((lnull$ ?v0)))) :named a4))
(assert (! (= (ltl$ lNil$) lNil$) :named a5))
(assert (! (forall ((?v0 A_llist_set$)) (=> (and (=> (forall ((?v1 A_llist$)) (=> (member$ ?v1 ?v0) (lnull$ ?v1))) false) (=> (not (forall ((?v1 A_llist$)) (=> (member$ ?v1 ?v0) (lnull$ ?v1)))) false)) false)) :named a6))
(assert (! (forall ((?v0 A_llist$) (?v1 A_llist$)) (=> (and (=> (and (lnull$ ?v0) (lnull$ ?v1)) false) (=> (or (not (lnull$ ?v0)) (not (lnull$ ?v1))) false)) false)) :named a7))
(assert (! (forall ((?v0 A_llist$)) (=> (and (=> (lnull$ ?v0) false) (=> (not (lnull$ ?v0)) false)) false)) :named a8))
(assert (! (forall ((?v0 A_llist$)) (=> (= ?v0 lNil$) (lnull$ ?v0))) :named a9))
(assert (! (forall ((?v0 A_llist$)) (=> (lnull$ ?v0) (= ?v0 lNil$))) :named a10))
(assert (! (forall ((?v0 A_llist$)) (=> (lnull$ ?v0) (lnull$ (ltl$ ?v0)))) :named a11))
(assert (! (lnull$ lNil$) :named a12))
(assert (! (= (ltl$ (lSup$ y$)) (lSup$ (insert$ lNil$ (image$ uu$ (inf$ y$ (collect$ uua$)))))) :named a13))
(assert (! (forall ((?v0 A_llist$) (?v1 A_llist_set$) (?v2 A_llist_set$)) (= (inf$ (insert$ ?v0 ?v1) (insert$ ?v0 ?v2)) (insert$ ?v0 (inf$ ?v1 ?v2)))) :named a14))
(assert (! (forall ((?v0 A_llist$) (?v1 A_llist_set$) (?v2 A_llist_set$)) (=> (member$ ?v0 ?v1) (= (inf$ (insert$ ?v0 ?v2) ?v1) (insert$ ?v0 (inf$ ?v2 ?v1))))) :named a15))
(assert (! (forall ((?v0 A_llist$) (?v1 A_llist_set$) (?v2 A_llist_set$)) (=> (member$ ?v0 ?v1) (= (inf$ ?v1 (insert$ ?v0 ?v2)) (insert$ ?v0 (inf$ ?v1 ?v2))))) :named a16))
(assert (! (forall ((?v0 A_llist$) (?v1 A_llist_set$) (?v2 A_llist_set$)) (=> (not (member$ ?v0 ?v1)) (= (inf$ (insert$ ?v0 ?v2) ?v1) (inf$ ?v2 ?v1)))) :named a17))
(assert (! (forall ((?v0 A_llist$) (?v1 A_llist_set$) (?v2 A_llist_set$)) (=> (not (member$ ?v0 ?v1)) (= (inf$ ?v1 (insert$ ?v0 ?v2)) (inf$ ?v1 ?v2)))) :named a18))
(assert (! (forall ((?v0 A_llist_a_llist_fun$) (?v1 A_llist$) (?v2 A_llist_set$)) (= (image$ ?v0 (insert$ ?v1 ?v2)) (insert$ (fun_app$a ?v0 ?v1) (image$ ?v0 ?v2)))) :named a19))
(check-sat)
;(get-unsat-core)
